36
1 0 2
2 0 6
2 1 33
3 0 54
3 1 45
3 2 22
4 0 21
4 1 25
4 2 64
4 3 4
5 0 25
5 1 49
5 2 48
5 3 11
5 4 31
6 0 8
6 1 7
6 2 49
6 3 8
6 4 44
6 5 60
7 0 6
7 1 41
7 2 41
7 3 21
7 4 4
7 5 15
7 6 61
8 0 15
8 1 7
8 2 9
8 3 29
8 4 1
8 5 55
8 6 59
8 7 1
9 0 22
9 1 61
9 2 15
9 3 7
9 4 27
9 5 41
9 6 50
9 7 31
9 8 54
10 0 19
10 1 49
10 2 28
10 3 59
10 4 36
10 5 66
10 6 38
10 7 2
10 8 19
10 9 46
11 0 61
11 1 33
11 2 22
11 3 32
11 4 54
11 5 1
11 6 31
11 7 15
11 8 15
11 9 32
11 10 33
12 0 28
12 1 14
12 2 8
12 3 5
12 4 64
12 5 39
12 6 59
12 7 55
12 8 56
12 9 14
12 10 40
12 11 58
13 0 59
13 1 20
13 2 32
13 3 48
13 4 50
13 5 48
13 6 58
13 7 16
13 8 50
13 9 23
13 10 28
13 11 5
13 12 6
14 0 36
14 1 58
14 2 56
14 3 51
14 4 55
14 5 26
14 6 60
14 7 13
14 8 61
14 9 65
14 10 34
14 11 6
14 12 50
14 13 31
15 0 40
15 1 25
15 2 37
15 3 4
15 4 51
15 5 24
15 6 33
15 7 29
15 8 58
15 9 52
15 10 54
15 11 6
15 12 34
15 13 11
15 14 40
16 0 62
16 1 17
16 2 19
16 3 16
16 4 61
16 5 23
16 6 38
16 7 27
16 8 56
16 9 27
16 10 63
16 11 18
16 12 39
16 13 7
16 14 29
16 15 59
17 0 46
17 1 64
17 2 22
17 3 29
17 4 50
17 5 64
17 6 63
17 7 23
17 8 18
17 9 11
17 10 21
17 11 43
17 12 48
17 13 56
17 14 60
17 15 20
17 16 10
18 0 63
18 1 61
18 2 58
18 3 36
18 4 25
18 5 10
18 6 16
18 7 39
18 8 65
18 9 40
18 10 65
18 11 54
18 12 63
18 13 50
18 14 44
18 15 10
18 16 2
18 17 32
19 0 11
19 1 25
19 2 45
19 3 35
19 4 56
19 5 57
19 6 23
19 7 3
19 8 11
19 9 56
19 10 16
19 11 7
19 12 61
19 13 3
19 14 21
19 15 56
19 16 22
19 17 6
19 18 34
20 0 18
20 1 50
20 2 38
20 3 12
20 4 49
20 5 33
20 6 19
20 7 30
20 8 10
20 9 8
20 10 2
20 11 2
20 12 61
20 13 29
20 14 16
20 15 29
20 16 29
20 17 41
20 18 7
20 19 53
21 0 40
21 1 32
21 2 5
21 3 60
21 4 32
21 5 57
21 6 57
21 7 44
21 8 36
21 9 30
21 10 16
21 11 44
21 12 35
21 13 38
21 14 31
21 15 16
21 16 13
21 17 57
21 18 63
21 19 15
21 20 44
22 0 52
22 1 40
22 2 24
22 3 42
22 4 30
22 5 55
22 6 65
22 7 6
22 8 1
22 9 21
22 10 42
22 11 8
22 12 59
22 13 3
22 14 28
22 15 66
22 16 34
22 17 51
22 18 33
22 19 39
22 20 66
22 21 44
23 0 66
23 1 51
23 2 34
23 3 13
23 4 6
23 5 35
23 6 59
23 7 37
23 8 15
23 9 49
23 10 42
23 11 50
23 12 41
23 13 62
23 14 55
23 15 23
23 16 30
23 17 29
23 18 7
23 19 61
23 20 40
23 21 52
23 22 64
24 0 65
24 1 43
24 2 20
24 3 13
24 4 23
24 5 34
24 6 15
24 7 48
24 8 32
24 9 3
24 10 48
24 11 44
24 12 30
24 13 24
24 14 40
24 15 9
24 16 14
24 17 51
24 18 57
24 19 11
24 20 41
24 21 42
24 22 9
24 23 48
25 0 15
25 1 19
25 2 41
25 3 48
25 4 53
25 5 14
25 6 18
25 7 34
25 8 16
25 9 56
25 10 18
25 11 21
25 12 4
25 13 44
25 14 59
25 15 30
25 16 54
25 17 47
25 18 33
25 19 24
25 20 19
25 21 28
25 22 8
25 23 62
25 24 59
26 0 36
26 1 66
26 2 25
26 3 61
26 4 30
26 5 62
26 6 56
26 7 43
26 8 22
26 9 22
26 10 33
26 11 65
26 12 48
26 13 25
26 14 43
26 15 56
26 16 41
26 17 38
26 18 19
26 19 57
26 20 10
26 21 49
26 22 1
26 23 21
26 24 20
26 25 7
27 0 19
27 1 37
27 2 31
27 3 8
27 4 29
27 5 66
27 6 41
27 7 8
27 8 57
27 9 48
27 10 31
27 11 2
27 12 29
27 13 8
27 14 56
27 15 34
27 16 58
27 17 7
27 18 13
27 19 35
27 20 54
27 21 63
27 22 2
27 23 13
27 24 40
27 25 48
27 26 32
28 0 10
28 1 23
28 2 46
28 3 34
28 4 64
28 5 27
28 6 34
28 7 28
28 8 32
28 9 41
28 10 58
28 11 35
28 12 56
28 13 53
28 14 51
28 15 23
28 16 44
28 17 24
28 18 63
28 19 35
28 20 51
28 21 12
28 22 60
28 23 36
28 24 18
28 25 52
28 26 31
28 27 40
29 0 64
29 1 59
29 2 7
29 3 34
29 4 20
29 5 32
29 6 17
29 7 37
29 8 36
29 9 9
29 10 23
29 11 9
29 12 39
29 13 24
29 14 23
29 15 19
29 16 56
29 17 1
29 18 10
29 19 7
29 20 6
29 21 8
29 22 56
29 23 38
29 24 64
29 25 39
29 26 56
29 27 32
29 28 55
30 0 51
30 1 35
30 2 20
30 3 3
30 4 61
30 5 38
30 6 32
30 7 46
30 8 42
30 9 31
30 10 8
30 11 48
30 12 13
30 13 42
30 14 18
30 15 44
30 16 27
30 17 17
30 18 24
30 19 28
30 20 64
30 21 49
30 22 11
30 23 10
30 24 57
30 25 24
30 26 44
30 27 47
30 28 13
30 29 38
31 0 43
31 1 45
31 2 25
31 3 2
31 4 45
31 5 35
31 6 40
31 7 16
31 8 63
31 9 43
31 10 11
31 11 26
31 12 26
31 13 32
31 14 55
31 15 64
31 16 28
31 17 32
31 18 33
31 19 63
31 20 53
31 21 6
31 22 55
31 23 52
31 24 22
31 25 52
31 26 30
31 27 32
31 28 3
31 29 63
31 30 6
32 0 32
32 1 40
32 2 64
32 3 43
32 4 14
32 5 50
32 6 61
32 7 8
32 8 24
32 9 1
32 10 57
32 11 44
32 12 21
32 13 10
32 14 23
32 15 46
32 16 29
32 17 8
32 18 53
32 19 19
32 20 60
32 21 14
32 22 66
32 23 31
32 24 30
32 25 58
32 26 40
32 27 30
32 28 12
32 29 33
32 30 27
32 31 20
33 0 15
33 1 56
33 2 12
33 3 11
33 4 7
33 5 13
33 6 48
33 7 54
33 8 55
33 9 7
33 10 63
33 11 65
33 12 16
33 13 50
33 14 60
33 15 63
33 16 10
33 17 57
33 18 59
33 19 30
33 20 10
33 21 51
33 22 39
33 23 36
33 24 18
33 25 36
33 26 23
33 27 13
33 28 58
33 29 30
33 30 15
33 31 57
33 32 18
34 0 58
34 1 37
34 2 63
34 3 10
34 4 15
34 5 61
34 6 25
34 7 50
34 8 17
34 9 64
34 10 12
34 11 28
34 12 10
34 13 29
34 14 20
34 15 53
34 16 7
34 17 9
34 18 46
34 19 56
34 20 20
34 21 1
34 22 30
34 23 50
34 24 37
34 25 32
34 26 54
34 27 2
34 28 61
34 29 26
34 30 58
34 31 28
34 32 11
34 33 46
35 0 43
35 1 42
35 2 51
35 3 32
35 4 48
35 5 62
35 6 64
35 7 60
35 8 46
35 9 59
35 10 65
35 11 21
35 12 65
35 13 11
35 14 26
35 15 31
35 16 52
35 17 57
35 18 18
35 19 50
35 20 30
35 21 59
35 22 47
35 23 47
35 24 18
35 25 42
35 26 43
35 27 24
35 28 34
35 29 21
35 30 18
35 31 5
35 32 27
35 33 22
35 34 25
